(set-logic QF_S)
(declare-fun var0 () String)
(declare-fun var1 () String)
(declare-fun var2 () String)
(declare-fun var3 () String)
(declare-fun var4 () Int)
(declare-fun var5 () Int)
(declare-fun var6 () Int)
(declare-fun var7 () Int)
(assert (str.contains var0 var1))
(assert (str.contains (str.replace var2 "" var3) (str.substr var3 var4 var5)))
(assert (str.suffixof (str.at var2 var6) (str.at var2 var6)))
(assert (< var7 63))
(check-sat)